Traveling Salesman Problem/TSP_generados/Aleatorio1621103303_9.tsp
NAME: Aleatorio1621103303_9.tsp
COMMENT: Randomly generated scenario
TYPE: TSP
DIMENSION: 9
EDGE_WEIGHT_TYPE: ATT
NODE_COORD_SECTION
1 12.0 17.06
2 4.73 14.3
3 3.22 9.05
4 22.69 35.42
5 10.46 3.33
6 4.57 6.11
7 12.84 16.12
8 45.74 29.99
9 42.6 40.76
