Traveling Salesman Problem/TSP_generados/Aleatorio1621103303_9.opt.tour
NAME: Aleatorio1621103303_9.opt.tour
COMMENT: Optimal solution for Aleatorio1621103303_9 (121.96859244296377)
TYPE: TOUR
DIMENSION: 9
TOUR_SECTION
1 2 3 6 5 8 9 4 7
-1
EOF
